(benchmark gametime
:status unknown
:logic QF_AUFBV
:extrafuns ((gtINDEX66  BitVec[32]))
:extrafuns ((gtFIELD__bitsForTID0__gtAGG____anonstruct_D_Work_4  Array[32:32]))
:extrafuns ((gtINDEX67  BitVec[32]))
:extrafuns ((gtAGG__rtDWork  BitVec[32]))
:extrafuns ((gtINDEX64  BitVec[32]))
:extrafuns ((gtINDEX65  BitVec[32]))
:extrafuns ((gtINDEX62  BitVec[32]))
:extrafuns ((gtINDEX63  BitVec[32]))
:extrafuns ((gtINDEX60  BitVec[32]))
:extrafuns ((gtINDEX61  BitVec[32]))
:extrafuns ((gtINDEX59  BitVec[32]))
:extrafuns ((gtINDEX58  BitVec[32]))
:extrafuns ((gtINDEX57  BitVec[32]))
:extrafuns ((gtINDEX56  BitVec[32]))
:extrafuns ((gtINDEX54  BitVec[32]))
:extrafuns ((gtINDEX55  BitVec[32]))
:extrafuns ((gtINDEX52  BitVec[32]))
:extrafuns ((gtINDEX53  BitVec[32]))
:extrafuns ((gtINDEX50  BitVec[32]))
:extrafuns ((gtINDEX51  BitVec[32]))
:extrafuns ((gtINDEX48  BitVec[32]))
:extrafuns ((gtINDEX49  BitVec[32]))
:extrafuns ((gtINDEX46  BitVec[32]))
:extrafuns ((gtINDEX47  BitVec[32]))
:extrafuns ((gtINDEX44  BitVec[32]))
:extrafuns ((gtINDEX45  BitVec[32]))
:extrafuns ((gtINDEX42  BitVec[32]))
:extrafuns ((gtINDEX43  BitVec[32]))
:extrafuns ((gtINDEX41  BitVec[32]))
:extrafuns ((gtINDEX39  BitVec[32]))
:extrafuns ((gtINDEX40  BitVec[32]))
:extrafuns ((gtINDEX37  BitVec[32]))
:extrafuns ((gtINDEX38  BitVec[32]))
:extrafuns ((gtINDEX35  BitVec[32]))
:extrafuns ((gtINDEX36  BitVec[32]))
:extrafuns ((gtINDEX33  BitVec[32]))
:extrafuns ((gtINDEX34  BitVec[32]))
:extrafuns ((gtINDEX31  BitVec[32]))
:extrafuns ((gtINDEX32  BitVec[32]))
:extrafuns ((gtINDEX30  BitVec[32]))
:extrafuns ((gtINDEX29  BitVec[32]))
:extrafuns ((gtINDEX28  BitVec[32]))
:extrafuns ((gtINDEX27  BitVec[32]))
:extrafuns ((gtINDEX26  BitVec[32]))
:extrafuns ((gtINDEX25  BitVec[32]))
:extrafuns ((gtINDEX23  BitVec[32]))
:extrafuns ((gtINDEX24  BitVec[32]))
:extrafuns ((gtINDEX21  BitVec[32]))
:extrafuns ((gtINDEX22  BitVec[32]))
:extrafuns ((gtINDEX19  BitVec[32]))
:extrafuns ((gtINDEX20  BitVec[32]))
:extrafuns ((gtINDEX17  BitVec[32]))
:extrafuns ((gtINDEX18  BitVec[32]))
:extrafuns ((gtINDEX15  BitVec[32]))
:extrafuns ((gtINDEX16  BitVec[32]))
:extrafuns ((gtINDEX13  BitVec[32]))
:extrafuns ((gtINDEX14  BitVec[32]))
:extrafuns ((gtINDEX11  BitVec[32]))
:extrafuns ((gtINDEX12  BitVec[32]))
:extrafuns ((gtINDEX10  BitVec[32]))
:extrafuns ((gtINDEX8  BitVec[32]))
:extrafuns ((gtINDEX9  BitVec[32]))
:extrafuns ((gtINDEX6  BitVec[32]))
:extrafuns ((gtINDEX7  BitVec[32]))
:extrafuns ((gtINDEX4  BitVec[32]))
:extrafuns ((gtINDEX5  BitVec[32]))
:extrafuns ((gtINDEX2  BitVec[32]))
:extrafuns ((gtINDEX3  BitVec[32]))
:extrafuns ((gtINDEX0  BitVec[32]))
:extrafuns ((gtINDEX1  BitVec[32]))
:extrafuns ((gtFIELD__is_Eng__gtAGG____anonstruct_bitsForTID0_5_1_  Array[32:1]))
:extrafuns ((gtFIELD__is_Eng__gtAGG____anonstruct_bitsForTID0_5_2_  Array[32:1]))
:extrafuns ((sf_previousEvent_1_  BitVec[32]))
:extrafuns ((sfEvent__2_  BitVec[32]))
:extrafuns ((gtFIELD__is_Eng__gtAGG____anonstruct_bitsForTID0_5  Array[32:1]))
:extrafuns ((gtFIELD__sent__gtAGG____anonstruct_D_Work_4_1_  Array[32:32]))
:extrafuns ((gtFIELD__sent__gtAGG____anonstruct_D_Work_4_2_  Array[32:32]))
:extrafuns ((gtFIELD__is_active_Eng__gtAGG____anonstruct_bitsForTID0_5  Array[32:1]))
:extrafuns ((gtFIELD__is_active_PURI__gtAGG____anonstruct_bitsForTID0_5  Array[32:1]))
:extrafuns ((gtFIELD__is_active_PVRP__gtAGG____anonstruct_bitsForTID0_5  Array[32:1]))
:extrafuns ((sfEvent__1_  BitVec[32]))
:extrafuns ((gtFIELD__is_PPVARP__gtAGG____anonstruct_bitsForTID0_5  Array[32:2]))
:extrafuns ((gtFIELD__is_active_PPVARP__gtAGG____anonstruct_bitsForTID0_5  Array[32:1]))
:extrafuns ((gtFIELD__is_active_PLRI__gtAGG____anonstruct_bitsForTID0_5  Array[32:1]))
:extrafuns ((gtFIELD__is_PAVI__gtAGG____anonstruct_bitsForTID0_5  Array[32:3]))
:extrafuns ((gtFIELD__is_active_PAVI__gtAGG____anonstruct_bitsForTID0_5  Array[32:1]))
:extrafuns ((sfEvent_  BitVec[32]))
:extrafuns ((gtFIELD__sent__gtAGG____anonstruct_D_Work_4  Array[32:32]))
:extrapreds ((constraint118 ))
:extrapreds ((constraint117 ))
:extrapreds ((constraint116 ))
:extrapreds ((constraint115 ))
:extrapreds ((constraint114 ))
:extrapreds ((constraint113 ))
:extrapreds ((constraint112 ))
:extrapreds ((constraint111 ))
:extrapreds ((constraint110 ))
:extrapreds ((constraint109 ))
:extrapreds ((constraint108 ))
:extrapreds ((constraint107 ))
:extrapreds ((constraint106 ))
:extrapreds ((constraint105 ))
:extrapreds ((constraint104 ))
:extrapreds ((constraint103 ))
:extrapreds ((constraint102 ))
:extrapreds ((constraint101 ))
:extrapreds ((constraint100 ))
:extrapreds ((constraint99 ))
:extrapreds ((constraint98 ))
:extrapreds ((constraint97 ))
:extrapreds ((constraint96 ))
:extrapreds ((constraint95 ))
:extrapreds ((constraint94 ))
:extrapreds ((constraint93 ))
:extrapreds ((constraint92 ))
:extrapreds ((constraint91 ))
:extrapreds ((constraint90 ))
:extrapreds ((constraint89 ))
:extrapreds ((constraint88 ))
:extrapreds ((constraint87 ))
:extrapreds ((constraint86 ))
:extrapreds ((constraint85 ))
:extrapreds ((constraint84 ))
:extrapreds ((constraint83 ))
:extrapreds ((constraint82 ))
:extrapreds ((constraint81 ))
:extrapreds ((constraint80 ))
:extrapreds ((constraint79 ))
:extrapreds ((constraint78 ))
:extrapreds ((constraint77 ))
:extrapreds ((constraint76 ))
:extrapreds ((constraint75 ))
:extrapreds ((constraint74 ))
:extrapreds ((constraint73 ))
:extrapreds ((constraint72 ))
:extrapreds ((constraint71 ))
:extrapreds ((constraint70 ))
:extrapreds ((constraint69 ))
:extrapreds ((constraint68 ))
:extrapreds ((constraint67 ))
:extrapreds ((constraint66 ))
:extrapreds ((constraint65 ))
:extrapreds ((constraint64 ))
:extrapreds ((constraint63 ))
:extrapreds ((constraint62 ))
:extrapreds ((constraint61 ))
:extrapreds ((constraint60 ))
:extrapreds ((constraint59 ))
:extrapreds ((constraint58 ))
:extrapreds ((constraint57 ))
:extrapreds ((constraint56 ))
:extrapreds ((constraint55 ))
:extrapreds ((constraint54 ))
:extrapreds ((constraint53 ))
:extrapreds ((constraint52 ))
:extrapreds ((constraint51 ))
:extrapreds ((constraint50 ))
:extrapreds ((constraint49 ))
:extrapreds ((constraint48 ))
:extrapreds ((constraint47 ))
:extrapreds ((constraint46 ))
:extrapreds ((constraint45 ))
:extrapreds ((constraint44 ))
:extrapreds ((constraint43 ))
:extrapreds ((constraint42 ))
:extrapreds ((constraint41 ))
:extrapreds ((constraint40 ))
:extrapreds ((constraint39 ))
:extrapreds ((constraint38 ))
:extrapreds ((constraint37 ))
:extrapreds ((constraint36 ))
:extrapreds ((constraint35 ))
:extrapreds ((constraint34 ))
:extrapreds ((constraint33 ))
:extrapreds ((constraint32 ))
:extrapreds ((constraint31 ))
:extrapreds ((constraint30 ))
:extrapreds ((constraint29 ))
:extrapreds ((constraint28 ))
:extrapreds ((constraint27 ))
:extrapreds ((constraint26 ))
:extrapreds ((constraint25 ))
:extrapreds ((constraint24 ))
:extrapreds ((constraint23 ))
:extrapreds ((constraint22 ))
:extrapreds ((constraint21 ))
:extrapreds ((constraint20 ))
:extrapreds ((constraint19 ))
:extrapreds ((constraint18 ))
:extrapreds ((constraint17 ))
:extrapreds ((constraint16 ))
:extrapreds ((constraint15 ))
:extrapreds ((constraint14 ))
:extrapreds ((constraint13 ))
:extrapreds ((constraint12 ))
:extrapreds ((constraint11 ))
:extrapreds ((constraint10 ))
:extrapreds ((constraint9 ))
:extrapreds ((constraint8 ))
:extrapreds ((constraint7 ))
:extrapreds ((constraint6 ))
:extrapreds ((constraint5 ))
:extrapreds ((constraint4 ))
:extrapreds ((constraint3 ))
:extrapreds ((constraint2 ))
:extrapreds ((constraint1 ))
:extrapreds ((constraint0 ))
:formula
(flet ($x613 (and constraint0 constraint1 constraint2 constraint3 constraint4 constraint5 constraint6 constraint7 constraint8 constraint9 constraint10 constraint11 constraint12 constraint13 constraint14 constraint15 constraint16 constraint17 constraint18 constraint19 constraint20 constraint21 constraint22 constraint23 constraint24 constraint25 constraint26 constraint27 constraint28 constraint29 constraint30 constraint31 constraint32 constraint33 constraint34 constraint35 constraint36 constraint37 constraint38 constraint39 constraint40 constraint41 constraint42 constraint43 constraint44 constraint45 constraint46 constraint47 constraint48 constraint49 constraint50 constraint51 constraint52 constraint53 constraint54 constraint55 constraint56 constraint57 constraint58 constraint59 constraint60 constraint61 constraint62 constraint63 constraint64 constraint65 constraint66 constraint67 constraint68 constraint69 constraint70 constraint71 constraint72 constraint73 constraint74 constraint75 constraint76 constraint77 constraint78 constraint79 constraint80 constraint81 constraint82 constraint83 constraint84 constraint85 constraint86 constraint87 constraint88 constraint89 constraint90 constraint91 constraint92 constraint93 constraint94 constraint95 constraint96 constraint97 constraint98 constraint99 constraint100 constraint101 constraint102 constraint103 constraint104 constraint105 constraint106 constraint107 constraint108 constraint109 constraint110 constraint111 constraint112 constraint113 constraint114 constraint115 constraint116 constraint117 constraint118))
(flet ($x373 (= gtINDEX67 (select gtFIELD__bitsForTID0__gtAGG____anonstruct_D_Work_4 gtINDEX66)))
(flet ($x369 (= gtINDEX65 (select gtFIELD__bitsForTID0__gtAGG____anonstruct_D_Work_4 gtINDEX64)))
(flet ($x365 (= gtINDEX63 (select gtFIELD__bitsForTID0__gtAGG____anonstruct_D_Work_4 gtINDEX62)))
(flet ($x361 (= gtINDEX61 (select gtFIELD__bitsForTID0__gtAGG____anonstruct_D_Work_4 gtINDEX60)))
(flet ($x353 (= gtINDEX55 (select gtFIELD__bitsForTID0__gtAGG____anonstruct_D_Work_4 gtINDEX54)))
(flet ($x349 (= gtINDEX53 (select gtFIELD__bitsForTID0__gtAGG____anonstruct_D_Work_4 gtINDEX52)))
(flet ($x345 (= gtINDEX51 (select gtFIELD__bitsForTID0__gtAGG____anonstruct_D_Work_4 gtINDEX50)))
(flet ($x341 (= gtINDEX49 (select gtFIELD__bitsForTID0__gtAGG____anonstruct_D_Work_4 gtINDEX48)))
(flet ($x337 (= gtINDEX47 (select gtFIELD__bitsForTID0__gtAGG____anonstruct_D_Work_4 gtINDEX46)))
(flet ($x333 (= gtINDEX45 (select gtFIELD__bitsForTID0__gtAGG____anonstruct_D_Work_4 gtINDEX44)))
(flet ($x329 (= gtINDEX43 (select gtFIELD__bitsForTID0__gtAGG____anonstruct_D_Work_4 gtINDEX42)))
(flet ($x324 (= gtINDEX40 (select gtFIELD__bitsForTID0__gtAGG____anonstruct_D_Work_4 gtINDEX39)))
(flet ($x320 (= gtINDEX38 (select gtFIELD__bitsForTID0__gtAGG____anonstruct_D_Work_4 gtINDEX37)))
(flet ($x316 (= gtINDEX36 (select gtFIELD__bitsForTID0__gtAGG____anonstruct_D_Work_4 gtINDEX35)))
(flet ($x312 (= gtINDEX34 (select gtFIELD__bitsForTID0__gtAGG____anonstruct_D_Work_4 gtINDEX33)))
(flet ($x308 (= gtINDEX32 (select gtFIELD__bitsForTID0__gtAGG____anonstruct_D_Work_4 gtINDEX31)))
(flet ($x298 (= gtINDEX24 (select gtFIELD__bitsForTID0__gtAGG____anonstruct_D_Work_4 gtINDEX23)))
(flet ($x294 (= gtINDEX22 (select gtFIELD__bitsForTID0__gtAGG____anonstruct_D_Work_4 gtINDEX21)))
(flet ($x290 (= gtINDEX20 (select gtFIELD__bitsForTID0__gtAGG____anonstruct_D_Work_4 gtINDEX19)))
(flet ($x286 (= gtINDEX18 (select gtFIELD__bitsForTID0__gtAGG____anonstruct_D_Work_4 gtINDEX17)))
(flet ($x282 (= gtINDEX16 (select gtFIELD__bitsForTID0__gtAGG____anonstruct_D_Work_4 gtINDEX15)))
(flet ($x278 (= gtINDEX14 (select gtFIELD__bitsForTID0__gtAGG____anonstruct_D_Work_4 gtINDEX13)))
(flet ($x274 (= gtINDEX12 (select gtFIELD__bitsForTID0__gtAGG____anonstruct_D_Work_4 gtINDEX11)))
(flet ($x269 (= gtINDEX9 (select gtFIELD__bitsForTID0__gtAGG____anonstruct_D_Work_4 gtINDEX8)))
(flet ($x265 (= gtINDEX7 (select gtFIELD__bitsForTID0__gtAGG____anonstruct_D_Work_4 gtINDEX6)))
(flet ($x261 (= gtINDEX5 (select gtFIELD__bitsForTID0__gtAGG____anonstruct_D_Work_4 gtINDEX4)))
(flet ($x257 (= gtINDEX3 (select gtFIELD__bitsForTID0__gtAGG____anonstruct_D_Work_4 gtINDEX2)))
(flet ($x253 (= gtINDEX1 (select gtFIELD__bitsForTID0__gtAGG____anonstruct_D_Work_4 gtINDEX0)))
(let (?x237 (extract[0:0] bv1[32]))
(let (?x247 (store gtFIELD__is_Eng__gtAGG____anonstruct_bitsForTID0_5_1_ gtINDEX67 ?x237))
(flet ($x475 (iff constraint50 (= gtFIELD__is_Eng__gtAGG____anonstruct_bitsForTID0_5_2_ ?x247)))
(let (?x243 (select gtFIELD__is_Eng__gtAGG____anonstruct_bitsForTID0_5_1_ gtINDEX65))
(let (?x238 (store gtFIELD__is_Eng__gtAGG____anonstruct_bitsForTID0_5 gtINDEX63 ?x237))
(flet ($x469 (iff constraint47 (= gtFIELD__is_Eng__gtAGG____anonstruct_bitsForTID0_5_1_ ?x238)))
(let (?x234 (zero_extend[31] (select gtFIELD__is_Eng__gtAGG____anonstruct_bitsForTID0_5 gtINDEX61)))
(let (?x230 (store gtFIELD__sent__gtAGG____anonstruct_D_Work_4_1_ gtINDEX59 bv0[32]))
(flet ($x465 (iff constraint45 (= gtFIELD__sent__gtAGG____anonstruct_D_Work_4_2_ ?x230)))
(let (?x129 (bvmul bv4294967295[32] bv1[32]))
(flet ($x228 (= (select gtFIELD__sent__gtAGG____anonstruct_D_Work_4_1_ gtINDEX58) ?x129))
(flet ($x224 (= (select gtFIELD__sent__gtAGG____anonstruct_D_Work_4_1_ gtINDEX57) bv9[32]))
(flet ($x220 (= (select gtFIELD__sent__gtAGG____anonstruct_D_Work_4_1_ gtINDEX56) bv4[32]))
(let (?x216 (zero_extend[31] (select gtFIELD__is_Eng__gtAGG____anonstruct_bitsForTID0_5 gtINDEX55)))
(let (?x210 (select gtFIELD__is_active_Eng__gtAGG____anonstruct_bitsForTID0_5 gtINDEX53))
(let (?x204 (select gtFIELD__is_active_PURI__gtAGG____anonstruct_bitsForTID0_5 gtINDEX51))
(let (?x198 (select gtFIELD__is_active_PVRP__gtAGG____anonstruct_bitsForTID0_5 gtINDEX49))
(let (?x188 (select gtFIELD__is_PPVARP__gtAGG____anonstruct_bitsForTID0_5 gtINDEX47))
(let (?x183 (select gtFIELD__is_active_PPVARP__gtAGG____anonstruct_bitsForTID0_5 gtINDEX45))
(let (?x177 (select gtFIELD__is_active_PLRI__gtAGG____anonstruct_bitsForTID0_5 gtINDEX43))
(flet ($x174 (= (select gtFIELD__sent__gtAGG____anonstruct_D_Work_4_1_ gtINDEX41) bv0[32]))
(let (?x169 (select gtFIELD__is_PAVI__gtAGG____anonstruct_bitsForTID0_5 gtINDEX40))
(let (?x164 (select gtFIELD__is_PAVI__gtAGG____anonstruct_bitsForTID0_5 gtINDEX38))
(let (?x159 (select gtFIELD__is_PAVI__gtAGG____anonstruct_bitsForTID0_5 gtINDEX36))
(let (?x154 (select gtFIELD__is_PAVI__gtAGG____anonstruct_bitsForTID0_5 gtINDEX34))
(let (?x149 (select gtFIELD__is_active_PAVI__gtAGG____anonstruct_bitsForTID0_5 gtINDEX32))
(flet ($x141 (= gtFIELD__sent__gtAGG____anonstruct_D_Work_4_1_ (store gtFIELD__sent__gtAGG____anonstruct_D_Work_4 gtINDEX30 ?x129)))
(flet ($x138 (= (select gtFIELD__sent__gtAGG____anonstruct_D_Work_4 gtINDEX29) bv2[32]))
(flet ($x134 (= (select gtFIELD__sent__gtAGG____anonstruct_D_Work_4 gtINDEX28) bv1[32]))
(flet ($x130 (= (select gtFIELD__sent__gtAGG____anonstruct_D_Work_4 gtINDEX27) ?x129))
(flet ($x124 (= (select gtFIELD__sent__gtAGG____anonstruct_D_Work_4 gtINDEX26) bv9[32]))
(flet ($x119 (= (select gtFIELD__sent__gtAGG____anonstruct_D_Work_4 gtINDEX25) bv4[32]))
(let (?x115 (zero_extend[31] (select gtFIELD__is_Eng__gtAGG____anonstruct_bitsForTID0_5 gtINDEX24)))
(let (?x109 (select gtFIELD__is_active_Eng__gtAGG____anonstruct_bitsForTID0_5 gtINDEX22))
(let (?x103 (select gtFIELD__is_active_PURI__gtAGG____anonstruct_bitsForTID0_5 gtINDEX20))
(let (?x97 (select gtFIELD__is_active_PVRP__gtAGG____anonstruct_bitsForTID0_5 gtINDEX18))
(let (?x86 (select gtFIELD__is_PPVARP__gtAGG____anonstruct_bitsForTID0_5 gtINDEX16))
(let (?x81 (select gtFIELD__is_active_PPVARP__gtAGG____anonstruct_bitsForTID0_5 gtINDEX14))
(let (?x75 (select gtFIELD__is_active_PLRI__gtAGG____anonstruct_bitsForTID0_5 gtINDEX12))
(flet ($x72 (= (select gtFIELD__sent__gtAGG____anonstruct_D_Work_4 gtINDEX10) bv0[32]))
(let (?x67 (zero_extend[29] (select gtFIELD__is_PAVI__gtAGG____anonstruct_bitsForTID0_5 gtINDEX9)))
(let (?x61 (zero_extend[29] (select gtFIELD__is_PAVI__gtAGG____anonstruct_bitsForTID0_5 gtINDEX7)))
(let (?x55 (zero_extend[29] (select gtFIELD__is_PAVI__gtAGG____anonstruct_bitsForTID0_5 gtINDEX5)))
(let (?x49 (zero_extend[29] (select gtFIELD__is_PAVI__gtAGG____anonstruct_bitsForTID0_5 gtINDEX3)))
(let (?x42 (select gtFIELD__is_active_PAVI__gtAGG____anonstruct_bitsForTID0_5 gtINDEX1))
(flet ($x612 (and (iff constraint0 (not (= sfEvent_ bv8[32]))) (iff constraint1 (not (= (zero_extend[31] ?x42) bv0[32]))) (iff constraint2 (not (= ?x49 bv1[32]))) (iff constraint3 (not (= ?x55 bv2[32]))) (iff constraint4 (not (= ?x61 bv3[32]))) (iff constraint5 (= ?x67 bv4[32])) (iff constraint6 (not $x72)) (iff constraint7 (not (not (= (zero_extend[31] ?x75) bv0[32])))) (iff constraint8 (not (= (zero_extend[31] ?x81) bv0[32]))) (iff constraint9 (= (zero_extend[30] ?x86) bv1[32])) (iff constraint10 (not (= sfEvent_ bv4[32]))) (iff constraint11 (not (= sfEvent_ bv5[32]))) (iff constraint12 (not (= sfEvent_ bv1[32]))) (iff constraint13 (not (not (= (zero_extend[31] ?x97) bv0[32])))) (iff constraint14 (not (not (= (zero_extend[31] ?x103) bv0[32])))) (iff constraint15 (not (= (zero_extend[31] ?x109) bv0[32]))) (iff constraint16 (= ?x115 bv1[32])) (iff constraint17 (not $x119)) (iff constraint18 (not $x124)) (iff constraint19 (not $x130)) (iff constraint20 (not $x134)) (iff constraint21 $x138) (iff constraint22 $x141) (iff constraint23 (= sf_previousEvent_1_ sfEvent_)) (iff constraint24 (= sfEvent__1_ bv3[32])) (iff constraint25 (not (= sfEvent__1_ bv8[32]))) (iff constraint26 (not (= (zero_extend[31] ?x149) bv0[32]))) (iff constraint27 (not (= (zero_extend[29] ?x154) bv1[32]))) (iff constraint28 (not (= (zero_extend[29] ?x159) bv2[32]))) (iff constraint29 (not (= (zero_extend[29] ?x164) bv3[32]))) (iff constraint30 (= (zero_extend[29] ?x169) bv4[32])) (iff constraint31 (not $x174)) (iff constraint32 (not (not (= (zero_extend[31] ?x177) bv0[32])))) (iff constraint33 (not (= (zero_extend[31] ?x183) bv0[32]))) (iff constraint34 (= (zero_extend[30] ?x188) bv1[32])) (iff constraint35 (not (= sfEvent__1_ bv4[32]))) (iff constraint36 (not (= sfEvent__1_ bv5[32]))) (iff constraint37 (not (= sfEvent__1_ bv1[32]))) (iff constraint38 (not (not (= (zero_extend[31] ?x198) bv0[32])))) (iff constraint39 (not (not (= (zero_extend[31] ?x204) bv0[32])))) (iff constraint40 (not (= (zero_extend[31] ?x210) bv0[32]))) (iff constraint41 (= ?x216 bv1[32])) (iff constraint42 (not $x220)) (iff constraint43 (not $x224)) (iff constraint44 $x228) $x465 (iff constraint46 (= ?x234 bv1[32])) $x469 (iff constraint48 (= sfEvent__2_ sf_previousEvent_1_)) (iff constraint49 (= (zero_extend[31] ?x243) bv1[32])) $x475 (iff constraint51 (= gtINDEX0 gtAGG__rtDWork)) (iff constraint52 $x253) (iff constraint53 (= gtINDEX2 gtAGG__rtDWork)) (iff constraint54 $x257) (iff constraint55 (= gtINDEX4 gtAGG__rtDWork)) (iff constraint56 $x261) (iff constraint57 (= gtINDEX6 gtAGG__rtDWork)) (iff constraint58 $x265) (iff constraint59 (= gtINDEX8 gtAGG__rtDWork)) (iff constraint60 $x269) (iff constraint61 (= gtINDEX10 gtAGG__rtDWork)) (iff constraint62 (= gtINDEX11 gtAGG__rtDWork)) (iff constraint63 $x274) (iff constraint64 (= gtINDEX13 gtAGG__rtDWork)) (iff constraint65 $x278) (iff constraint66 (= gtINDEX15 gtAGG__rtDWork)) (iff constraint67 $x282) (iff constraint68 (= gtINDEX17 gtAGG__rtDWork)) (iff constraint69 $x286) (iff constraint70 (= gtINDEX19 gtAGG__rtDWork)) (iff constraint71 $x290) (iff constraint72 (= gtINDEX21 gtAGG__rtDWork)) (iff constraint73 $x294) (iff constraint74 (= gtINDEX23 gtAGG__rtDWork)) (iff constraint75 $x298) (iff constraint76 (= gtINDEX25 gtAGG__rtDWork)) (iff constraint77 (= gtINDEX26 gtAGG__rtDWork)) (iff constraint78 (= gtINDEX27 gtAGG__rtDWork)) (iff constraint79 (= gtINDEX28 gtAGG__rtDWork)) (iff constraint80 (= gtINDEX29 gtAGG__rtDWork)) (iff constraint81 (= gtINDEX30 gtAGG__rtDWork)) (iff constraint82 (= gtINDEX31 gtAGG__rtDWork)) (iff constraint83 $x308) (iff constraint84 (= gtINDEX33 gtAGG__rtDWork)) (iff constraint85 $x312) (iff constraint86 (= gtINDEX35 gtAGG__rtDWork)) (iff constraint87 $x316) (iff constraint88 (= gtINDEX37 gtAGG__rtDWork)) (iff constraint89 $x320) (iff constraint90 (= gtINDEX39 gtAGG__rtDWork)) (iff constraint91 $x324) (iff constraint92 (= gtINDEX41 gtAGG__rtDWork)) (iff constraint93 (= gtINDEX42 gtAGG__rtDWork)) (iff constraint94 $x329) (iff constraint95 (= gtINDEX44 gtAGG__rtDWork)) (iff constraint96 $x333) (iff constraint97 (= gtINDEX46 gtAGG__rtDWork)) (iff constraint98 $x337) (iff constraint99 (= gtINDEX48 gtAGG__rtDWork)) (iff constraint100 $x341) (iff constraint101 (= gtINDEX50 gtAGG__rtDWork)) (iff constraint102 $x345) (iff constraint103 (= gtINDEX52 gtAGG__rtDWork)) (iff constraint104 $x349) (iff constraint105 (= gtINDEX54 gtAGG__rtDWork)) (iff constraint106 $x353) (iff constraint107 (= gtINDEX56 gtAGG__rtDWork)) (iff constraint108 (= gtINDEX57 gtAGG__rtDWork)) (iff constraint109 (= gtINDEX58 gtAGG__rtDWork)) (iff constraint110 (= gtINDEX59 gtAGG__rtDWork)) (iff constraint111 (= gtINDEX60 gtAGG__rtDWork)) (iff constraint112 $x361) (iff constraint113 (= gtINDEX62 gtAGG__rtDWork)) (iff constraint114 $x365) (iff constraint115 (= gtINDEX64 gtAGG__rtDWork)) (iff constraint116 $x369) (iff constraint117 (= gtINDEX66 gtAGG__rtDWork)) (iff constraint118 $x373)))
(and $x612 $x613))))))))))))))))))))))))))))))))))))))))))))))))))))))))))))))))))))))))))))
)
